N = 8;
H = 6;
T = 2;

avail = array3d(1..N, 1..H, 1..T, [8, 0, 4, 0, 6, 8, 9, 10, 7, 7, 6, 2, 5, 1, 7, 0, 2, 10, 5, 2, 5, 8, 7, 1, 9, 10, 10, 7, 4, 4, 2, 10, 5, 8, 7, 7, 9, 7, 3, 9, 8, 10, 10, 0, 5, 5, 7, 8, 8, 0, 6, 6, 8, 5, 0, 5, 9, 4, 10, 4, 2, 4, 8, 8, 6, 9, 8, 2, 6, 3, 2, 7, 10, 5, 10, 0, 2, 2, 1, 0, 0, 7, 3, 4, 8, 5, 0, 10, 4, 1, 4, 6, 0, 7, 10, 10]);

r = array2d(1..H, 1..T, [0, 4, 2, 4, 1, 1, 0, 2, 1, 2, 1, 2]);
